(declare-fun temp4577_1 () (_ BitVec 64))
(declare-fun var73260 () (_ BitVec 64))
(declare-fun ARGNAME_pad_NAMEEND_LEN () (_ BitVec 64))
(declare-fun temp4577_2 () (_ BitVec 64))
(declare-fun temp4577_3 () (_ BitVec 64))
(declare-fun var73261 () (_ BitVec 64))
(declare-fun k!0 () (_ BitVec 1))
(declare-fun k!1 () Bool)
(declare-fun temp4577_4 () (_ BitVec 64))
(declare-fun ARGNAME_input_NAMEEND_DIM () (_ BitVec 64))
(declare-fun var73273 () (_ BitVec 64))
(declare-fun var73274 () (_ BitVec 64))
(declare-fun temp4577_5 () (_ BitVec 64))
(declare-fun temp4577_6 () (_ BitVec 64))
(declare-fun ARGNAME_mode_NAMEEND () (_ BitVec 64))
(declare-fun var73285 () (_ BitVec 64))
(declare-fun temp4577_7 () (_ BitVec 64))
(declare-fun temp4577_8 () (_ BitVec 64))
(declare-fun var131889 () (_ BitVec 64))
(declare-fun temp4577_9 () (_ BitVec 64))
(declare-fun var131891 () (_ BitVec 64))
(declare-fun temp4577_10 () (_ BitVec 64))
(declare-fun temp4577_11 () (_ BitVec 64))
(declare-fun var131947 () (_ BitVec 64))
(declare-fun var131949 () (_ BitVec 64))
(declare-fun var131950 () (_ BitVec 64))
(declare-fun temp4577_12 () (_ BitVec 64))
(declare-fun var394824 () (_ BitVec 64))
(declare-fun var464861 () (_ BitVec 64))
(declare-fun var464863 () (_ BitVec 64))
(declare-fun temp4577_13 () (_ BitVec 64))
(declare-fun var530404 () (_ BitVec 64))
(declare-fun var595951 () (_ BitVec 64))
(declare-fun temp4577_14 () (_ BitVec 64))
(declare-fun var132045 () (_ BitVec 64))
(declare-fun temp4577_15 () (_ BitVec 64))
(declare-fun var984719 () (_ BitVec 64))
(declare-fun temp4577_16 () (_ BitVec 64))
(declare-fun var132033 () (_ BitVec 64))
(declare-fun temp4577_17 () (_ BitVec 64))
(declare-fun temp4577_18 () (_ BitVec 64))
(declare-fun var132167 () (_ BitVec 64))
(declare-fun temp4577_19 () (_ BitVec 64))
(declare-fun temp4577_20 () (_ BitVec 64))
(declare-fun ARGNAME_input_NAMEEND_DIMSIZE
             ()
             (Array (_ BitVec 64) (_ BitVec 64)))
(declare-fun temp4577_21 () (_ BitVec 64))
(declare-fun temp4577_22 () (_ BitVec 64))
(declare-fun temp4577_23 () (_ BitVec 64))
(declare-fun temp4577_24 () (_ BitVec 64))
(declare-fun temp4577_25 () (_ BitVec 64))
(declare-fun temp4577_26 () (_ BitVec 64))
(declare-fun temp4577_27 () (_ BitVec 64))
(declare-fun temp4577_28 () (_ BitVec 64))
(declare-fun temp4577_29 () (_ BitVec 64))
(declare-fun temp4577_30 () (_ BitVec 64))
(declare-fun temp4577_31 () (_ BitVec 64))
(declare-fun temp4577_32 () (_ BitVec 64))
(declare-fun temp4577_33 () (_ BitVec 64))
(declare-fun temp4577_34 () (_ BitVec 64))
(declare-fun temp4577_35 () (_ BitVec 64))
(declare-fun temp4577_36 () (_ BitVec 64))
(declare-fun temp4577_38 () (_ BitVec 64))
(declare-fun temp4577_39 () (_ BitVec 64))
(declare-fun temp4577_37 () (_ BitVec 64))
(declare-fun temp4577_40 () (_ BitVec 64))
(declare-fun var132168 () (_ BitVec 64))
(declare-fun var132171 () (_ BitVec 64))
(declare-fun var1312435 () (_ BitVec 64))
(declare-fun temp4577_43 () (_ BitVec 64))
(declare-fun temp4577_42 () (_ BitVec 64))
(declare-fun var1381193 () (_ BitVec 64))
(declare-fun var1381194 () (_ BitVec 64))
(declare-fun temp4577_44 () (_ BitVec 64))
(declare-fun temp4577_45 () (_ BitVec 64))
(declare-fun var1447642 () (_ BitVec 64))
(declare-fun var1513189 () (_ BitVec 64))
(declare-fun temp4577_46 () (_ BitVec 64))
(declare-fun var1902313 () (_ BitVec 64))
(declare-fun temp4577_47 () (_ BitVec 64))
(declare-fun var2168171 () (_ BitVec 64))
(declare-fun temp4577_48 () (_ BitVec 64))
(declare-fun var2364779 () (_ BitVec 64))
(declare-fun temp4577_49 () (_ BitVec 64))
(declare-fun var1902398 () (_ BitVec 64))
(declare-fun var1902311 () (_ BitVec 64))
(declare-fun var132213 () (_ BitVec 64))
(declare-fun temp4577_50 () (_ BitVec 64))
(declare-fun var2625354 () (_ BitVec 64))
(declare-fun var3999304 () (_ BitVec 64))
(declare-fun var4069341 () (_ BitVec 64))
(declare-fun var4069343 () (_ BitVec 64))
(declare-fun temp4577_51 () (_ BitVec 64))
(declare-fun var4134884 () (_ BitVec 64))
(declare-fun var4200431 () (_ BitVec 64))
(declare-fun temp4577_52 () (_ BitVec 64))
(declare-fun var4785807 () (_ BitVec 64))
(assert (= temp4577_1 #x0000000000000001))
(assert (= var73260 (bvand ARGNAME_pad_NAMEEND_LEN temp4577_1)))
(assert (= temp4577_2 #x0000000000000000))
(assert (= var73261 (ite (= var73260 temp4577_2) #x0000000000000001 #x0000000000000000)))
(assert (= temp4577_3 #x0000000000000001))
(assert (= var73261 temp4577_3))
(assert (= temp4577_4 #x0000000000000001))
(assert (= var73273 (bvshl ARGNAME_input_NAMEEND_DIM temp4577_4)))
(assert (= var73274
   (ite (bvsgt ARGNAME_pad_NAMEEND_LEN var73273)
        #x0000000000000001
        #x0000000000000000)))
(assert (= temp4577_5 #x0000000000000000))
(assert (= var73274 temp4577_5))
(assert (= temp4577_6 #x0000000000000003))
(assert (= var73285
   (ite (= ARGNAME_mode_NAMEEND temp4577_6)
        #x0000000000000001
        #x0000000000000000)))
(assert (= temp4577_7 #x0000000000000001))
(assert (= var73285 temp4577_7))
(assert (= temp4577_8 #x0000000000000001))
(assert (= var131889 (bvand ARGNAME_pad_NAMEEND_LEN temp4577_8)))
(assert (= temp4577_9 #x0000000000000000))
(assert (= var131891
   (ite (= var131889 temp4577_9) #x0000000000000001 #x0000000000000000)))
(assert (= temp4577_10 #x0000000000000001))
(assert (= var131891 temp4577_10))
(assert (= temp4577_11 #x0000000000000001))
(assert (= var131947 (bvlshr ARGNAME_pad_NAMEEND_LEN temp4577_11)))
(assert (= var131949 (bvsub ARGNAME_input_NAMEEND_DIM var131947)))
(assert (= var131950
   (ite (bvslt ARGNAME_input_NAMEEND_DIM var131947)
        #x0000000000000001
        #x0000000000000000)))
(assert (= temp4577_12 #x0000000000000000))
(assert (= var131950 temp4577_12))
(assert (= var394824 var131949))
(assert (= var464861 var394824))
(assert (= var464863
   (ite (bvslt var464861 ARGNAME_input_NAMEEND_DIM)
        #x0000000000000001
        #x0000000000000000)))
(assert (= temp4577_13
   (ite (= var464863 #x0000000000000001) ARGNAME_input_NAMEEND_DIM var394824)))
(assert (= var530404 var394824))
(assert (= var595951 var530404))
(assert (= temp4577_14 #x0000000000000001))
(assert (= var132045 temp4577_14))
(assert (= temp4577_15 #x0000000000000000))
(assert (= var984719 temp4577_15))
(assert (= temp4577_16 #x0000000000000000))
(assert (= var132033
   (ite (= var131949 temp4577_16) #x0000000000000001 #x0000000000000000)))
(assert (= temp4577_17 #x0000000000000000))
(assert (= var132033 temp4577_17))
(assert (= temp4577_18 #x0000000000000000))
(assert (= var132167 temp4577_18))
(assert (= temp4577_19 #x0000000000000000))
(assert (= temp4577_20 temp4577_19))
(assert (= temp4577_21 (select ARGNAME_input_NAMEEND_DIMSIZE temp4577_20)))
(assert (= temp4577_22 #x0000000000000001))
(assert (= temp4577_23 temp4577_22))
(assert (= temp4577_24 (select ARGNAME_input_NAMEEND_DIMSIZE temp4577_23)))
(assert (= temp4577_25 #x0000000000000002))
(assert (= temp4577_26 temp4577_25))
(assert (= temp4577_27 (select ARGNAME_input_NAMEEND_DIMSIZE temp4577_26)))
(assert (= temp4577_28 #x0000000000000003))
(assert (= temp4577_29 temp4577_28))
(assert (= temp4577_30 (select ARGNAME_input_NAMEEND_DIMSIZE temp4577_29)))
(assert (= temp4577_31 #x0000000000000004))
(assert (= temp4577_32 temp4577_31))
(assert (= temp4577_33 (select ARGNAME_input_NAMEEND_DIMSIZE temp4577_32)))
(assert (= temp4577_34 #x0000000000000005))
(assert (= temp4577_35 temp4577_34))
(assert (= temp4577_36 (select ARGNAME_input_NAMEEND_DIMSIZE temp4577_35)))
(assert (= temp4577_38 var132167))
(assert (= temp4577_39 (select ARGNAME_input_NAMEEND_DIMSIZE temp4577_38)))
(assert (= temp4577_37 temp4577_39))
(assert (= temp4577_40 #x0000000000000001))
(assert (= var132168 (bvadd var132167 temp4577_40)))
(assert (= var132171
   (ite (= var132168 var131949) #x0000000000000001 #x0000000000000000)))
(assert (= var1312435 var131947))
(assert (= temp4577_43 #x0000000000000000))
(assert (= temp4577_42 temp4577_43))
(assert (= var1381193 var1312435))
(assert (= var1381194
   (ite (bvslt temp4577_42 var1381193) #x0000000000000001 #x0000000000000000)))
(assert (= temp4577_44 (ite (= var1381194 #x0000000000000001) var1312435 temp4577_42)))
(assert (= temp4577_45 #x0000000000000000))
(assert (= var1447642 temp4577_45))
(assert (= var1513189 var1447642))
(assert (= temp4577_46 #x0000000000000000))
(assert (= var1902313 temp4577_46))
(assert (= temp4577_47 #x0000000000000002))
(assert (= var2168171 temp4577_47))
(assert (= temp4577_48 #x0000000000000003))
(assert (= var2364779 temp4577_48))
(assert (= temp4577_49 #x0000000000000000))
(assert (= var1902398 temp4577_49))
(assert (= var1902311 var1902398))
(assert (= var132213 var1902311))
(assert (= temp4577_50 #x0000000000080000))
(assert (= var2625354 temp4577_50))
(assert (= var3999304 var131949))
(assert (= var4069341 var3999304))
(assert (= var4069343
   (ite (bvslt var4069341 ARGNAME_input_NAMEEND_DIM)
        #x0000000000000001
        #x0000000000000000)))
(assert (= temp4577_51
   (ite (= var4069343 #x0000000000000001) ARGNAME_input_NAMEEND_DIM var3999304)))
(assert (= var4134884 var3999304))
(assert (= var4200431 var4134884))
(assert (= temp4577_52 #x0000000000000000))
(assert (= var4785807 temp4577_52))
(model-add temp4577_1 () (_ BitVec 64) #x0000000000000001)
(model-add var73260
           ()
           (_ BitVec 64)
           (concat #b000000000000000000000000000000000000000000000000000000000000000
                   ((_ extract 0 0) ARGNAME_pad_NAMEEND_LEN)))
(model-add temp4577_2 () (_ BitVec 64) #x0000000000000000)
(model-add temp4577_3 () (_ BitVec 64) #x0000000000000001)
(model-add var73261 () (_ BitVec 64) #x0000000000000001)
(model-del k!0)
(model-add ARGNAME_pad_NAMEEND_LEN
           ()
           (_ BitVec 64)
           (concat #b000000000000000000000000000000000000000000000000000000000000000
                   k!0))
(model-del k!1)
(model-add k!0 () (_ BitVec 1) (ite k!1 #b0 (bvnot #b0)))



